% demand
num_movements = 11;
loading_factor = [950, 2000, 1300, 950, 1000, 800, 900, 1250, 1050, 1300, 1300];
pickup_time = [0, 0, 0, 0, 0, 0, 2, 3, 3, 3, 3];
delivery_time = [3, 1, 3, 3, 3, 3, 3, 5, 4, 5, 4];

% transporter definition
total_capacity = 7000;
num_decks = 3;
capacity = [3000, 1000, 3000];

% ways out of decks
num_ways_out = 1;
paths_out = array3d(decks, ways_out, decks, [
% ways out of deck d1
2, 3, 0, 

% ways out of deck d2
3, 0, 0, 

% ways out of deck d3
0, 0, 0,	

]);

